Maximize
  - 3.6121911853744 edge_0_1_0_0 - 2.691666364695 edge_0_5_0_0
   - 0.26896808489679 edge_0_6_0_0 - 2.8007196639136 edge_0_8_0_0
   - 2.0797765254784 edge_0_10_0_0 - 2.5480389298232 edge_0_11_0_0
   - 1.9295297493411 edge_0_12_0_0 - 3.4457755481606 edge_0_13_0_0
   + 0.14037381713322 edge_0_14_0_0 - 0.4664379837216 edge_0_15_0_0
   - 2.28399972592 edge_0_17_0_0 + 0.3439192179017999 edge_1_5_0_0
   + 0.1022970946042971 edge_1_6_0_0 - 0.5033281643407698 edge_1_7_0_0
   - 0.2124631344792611 edge_1_10_0_0 - 0.6578755476076968 edge_1_11_0_0
   - 0.8713686554285236 edge_1_12_0_0 - 0.0600522577998639 edge_1_13_0_0
   - 0.2439372352201097 edge_1_15_0_0 + 0.1088588090576735 edge_1_18_0_0
   + 0.1203133672395321 edge_5_1_0_0 + 0.1767297707245089 edge_5_6_0_0
   - 0.073316691347101 edge_5_7_0_0 + 0.0395142349222093 edge_5_10_0_0
   - 0.1292500480008504 edge_5_11_0_0 - 0.4213372531550142 edge_5_12_0_0
   - 0.389314475068647 edge_5_13_0_0 - 0.6495287214308763 edge_5_15_0_0
   - 1.385891049597054 edge_5_17_0_0 - 0.2177781537943823 edge_5_18_0_0
   + 0.4193556434971384 edge_6_1_0_0 + 1.248849804832418 edge_6_5_0_0
   + 0.545918447611499 edge_6_6_0_0 + 0.7409184972809951 edge_6_7_0_0
   + 0.6684830414090255 edge_6_8_0_0 + 0.3809436993347567 edge_6_10_0_0
   + 1.1383723801098 edge_6_11_0_0 + 0.7054286279942971 edge_6_12_0_0
   + 0.8345867062784551 edge_6_13_0_0 + 0.8300845912296145 edge_6_14_0_0
   + 0.7625727084626338 edge_6_15_0_0 - 0.066751978939097 edge_6_16_0_0
   + 0.27810441558816 edge_6_17_0_0 + 1.63378098887269 edge_6_18_0_0
   - 1.178527736892913 edge_7_1_0_0 - 0.3305527811228782 edge_7_5_0_0
   - 0.0300443266347188 edge_7_6_0_0 + 1.441571148699841 edge_7_8_0_0
   + 1.77332921809344 edge_7_10_0_0 + 0.396729445046923 edge_7_11_0_0
   + 0.371290648868158 edge_7_12_0_0 - 0.4191536406893326 edge_7_13_0_0
   - 0.2526427515883695 edge_7_14_0_0 - 0.1562803578368221 edge_7_15_0_0
   - 1.027331955940794 edge_7_16_0_0 - 0.50321397063366 edge_7_17_0_0
   + 0.6243509042332296 edge_7_18_0_0 - 0.4439229320484617 edge_8_1_0_0
   + 0.2536496069699935 edge_8_5_0_0 + 0.0603323246132002 edge_8_6_0_0
   + 1.312801939347548 edge_8_7_0_0 + 1.622309707984212 edge_8_10_0_0
   + 0.8620195345092434 edge_8_11_0_0 + 0.4307124132962042 edge_8_12_0_0
   - 0.3802716502857964 edge_8_13_0_0 - 0.179257528957374 edge_8_14_0_0
   - 0.00413169877430809 edge_8_15_0_0 - 1.02695854248316 edge_8_16_0_0
   - 0.33533695975956 edge_8_17_0_0 + 0.4934086743500919 edge_8_18_0_0
   - 0.493222836965928 edge_10_1_0_0 + 0.1281876407363911 edge_10_5_0_0
   + 0.2299833851447518 edge_10_6_0_0 + 0.7167476421480988 edge_10_7_0_0
   + 1.510149728173011 edge_10_8_0_0 + 0.9712485338005046 edge_10_11_0_0
   + 0.2465799465263023 edge_10_12_0_0 - 0.2986792616258693 edge_10_13_0_0
   - 0.1996033524654481 edge_10_14_0_0 - 0.0670307506070187 edge_10_15_0_0
   - 1.190312508745645 edge_10_16_0_0 - 0.4759299714442 edge_10_17_0_0
   + 0.1574279055432051 edge_10_18_0_0 + 0.2269027252947415 edge_11_1_0_0
   + 0.7346829617424618 edge_11_5_0_0 + 2.022527747338779 edge_11_6_0_0
   + 2.243225553540072 edge_11_7_0_0 + 2.068558882977704 edge_11_8_0_0
   + 2.887188614148873 edge_11_10_0_0 + 1.463539802157025 edge_11_12_0_0
   + 0.0333927593775952 edge_11_13_0_0 + 0.484251567933056 edge_11_14_0_0
   + 1.494964833784906 edge_11_15_0_0 - 0.2632795044137217 edge_11_16_0_0
   - 0.6785447150110999 edge_11_17_0_0 + 1.248808801142683 edge_11_18_0_0
   + 0.7673508961666636 edge_12_1_0_0 + 1.383073544334644 edge_12_5_0_0
   + 2.646630820160534 edge_12_6_0_0 - 0.9218633587866736 edge_12_8_0_0
   + 1.176732216083788 edge_12_10_0_0 + 2.842628503585929 edge_12_11_0_0
   + 1.969916874989754 edge_12_13_0_0 + 1.687917291522434 edge_12_15_0_0
   + 0.3412218266767476 edge_12_16_0_0 + 0.8992339894780083 edge_12_17_0_0
   + 1.631210408110738 edge_12_18_0_0 - 1.312829628124535 edge_13_1_0_0
   - 1.498221865588746 edge_13_5_0_0 - 1.266908973788117 edge_13_6_0_0
   - 0.5726634008011539 edge_13_10_0_0 - 0.578924461632904 edge_13_11_0_0
   + 0.4944566850240542 edge_13_12_0_0 + 0.5624866115703658 edge_13_14_0_0
   + 0.9604353481841534 edge_13_15_0_0 - 0.3388796345798968 edge_13_16_0_0
   + 0.46035334433088 edge_13_17_0_0 + 0.0609068053839876 edge_13_18_0_0
   - 0.1023091143803044 edge_14_1_0_0 - 0.4074539038017007 edge_14_5_0_0
   + 0.2743624048666882 edge_14_6_0_0 - 0.3389671997363631 edge_14_7_0_0
   - 0.0956684116823292 edge_14_8_0_0 - 0.1120584610076419 edge_14_10_0_0
   - 0.1364529883780308 edge_14_11_0_0 + 0.3899133956773506 edge_14_12_0_0
   + 1.161282682273702 edge_14_13_0_0 + 0.8898326644582465 edge_14_15_0_0
   + 1.546079939012796 edge_14_16_0_0 + 2.8082962948666 edge_14_17_0_0
   + 2.353751520725392 edge_14_18_0_0 + 0.4137760911854042 edge_15_1_0_0
   + 0.1219898891768439 edge_15_5_0_0 + 0.5530762401096053 edge_15_6_0_0
   + 0.3661884364104219 edge_15_7_0_0 + 0.4578542419234043 edge_15_8_0_0
   + 0.6524301593322681 edge_15_10_0_0 + 0.4732335370453509 edge_15_11_0_0
   + 1.054228619376857 edge_15_12_0_0 + 2.695696725304722 edge_15_13_0_0
   + 3.156930796026495 edge_15_14_0_0 + 0.8678815725973212 edge_15_16_0_0
   + 2.8193588264587 edge_15_17_0_0 + 2.647541984419356 edge_15_18_0_0
   - 1.121089936440977 edge_16_1_0_0 - 1.429741671259424 edge_16_5_0_0
   - 0.7267985264267487 edge_16_12_0_0 - 0.355278192295513 edge_16_13_0_0
   - 0.0377529018921192 edge_16_15_0_0 + 1.9169968325385 edge_16_17_0_0
   + 0.3579241827067618 edge_16_18_0_0 - 0.8223985704519997 edge_17_1_0_0
   - 0.5185083073191956 edge_17_5_0_0 + 0.3436013049910784 edge_17_6_0_0
   - 0.9563292428633 edge_17_7_0_0 - 1.3187298417524 edge_17_8_0_0
   - 0.164453996862318 edge_17_10_0_0 + 0.1065554677654223 edge_17_11_0_0
   - 0.067575216835128 edge_17_12_0_0 - 0.013516565074992 edge_17_13_0_0
   + 0.082286003269268 edge_17_14_0_0 + 0.5631607706313494 edge_17_15_0_0
   + 3.434816157718612 edge_17_16_0_0 + 0.9411091059455937 edge_17_18_0_0
   - 1.1308942050262 edge_18_16_0_0 - 1.513349182791 edge_18_17_0_0
Subject To
 one_parent_1: edge_0_1_0_0 + edge_5_1_0_0 + edge_6_1_0_0 + edge_7_1_0_0
   + edge_8_1_0_0 + edge_10_1_0_0 + edge_11_1_0_0 + edge_12_1_0_0
   + edge_13_1_0_0 + edge_14_1_0_0 + edge_15_1_0_0 + edge_16_1_0_0
   + edge_17_1_0_0 = 1
 consume_one_flow_unit_1: flow_0_1_0_0 - flow_1_5_0_0 - flow_1_6_0_0
   - flow_1_7_0_0 - flow_1_10_0_0 - flow_1_11_0_0 - flow_1_12_0_0
   - flow_1_13_0_0 - flow_1_15_0_0 - flow_1_18_0_0 + flow_5_1_0_0
   + flow_6_1_0_0 + flow_7_1_0_0 + flow_8_1_0_0 + flow_10_1_0_0
   + flow_11_1_0_0 + flow_12_1_0_0 + flow_13_1_0_0 + flow_14_1_0_0
   + flow_15_1_0_0 + flow_16_1_0_0 + flow_17_1_0_0 = 1
 one_parent_2: = 1
 consume_one_flow_unit_2: = 1
 one_parent_3: = 1
 consume_one_flow_unit_3: = 1
 one_parent_4: = 1
 consume_one_flow_unit_4: = 1
 one_parent_5: edge_0_5_0_0 + edge_1_5_0_0 + edge_6_5_0_0 + edge_7_5_0_0
   + edge_8_5_0_0 + edge_10_5_0_0 + edge_11_5_0_0 + edge_12_5_0_0
   + edge_13_5_0_0 + edge_14_5_0_0 + edge_15_5_0_0 + edge_16_5_0_0
   + edge_17_5_0_0 = 1
 consume_one_flow_unit_5: flow_0_5_0_0 + flow_1_5_0_0 - flow_5_1_0_0
   - flow_5_6_0_0 - flow_5_7_0_0 - flow_5_10_0_0 - flow_5_11_0_0
   - flow_5_12_0_0 - flow_5_13_0_0 - flow_5_15_0_0 - flow_5_17_0_0
   - flow_5_18_0_0 + flow_6_5_0_0 + flow_7_5_0_0 + flow_8_5_0_0
   + flow_10_5_0_0 + flow_11_5_0_0 + flow_12_5_0_0 + flow_13_5_0_0
   + flow_14_5_0_0 + flow_15_5_0_0 + flow_16_5_0_0 + flow_17_5_0_0 = 1
 one_parent_6: edge_0_6_0_0 + edge_1_6_0_0 + edge_5_6_0_0 + edge_6_6_0_0
   + edge_7_6_0_0 + edge_8_6_0_0 + edge_10_6_0_0 + edge_11_6_0_0
   + edge_12_6_0_0 + edge_13_6_0_0 + edge_14_6_0_0 + edge_15_6_0_0
   + edge_17_6_0_0 = 1
 consume_one_flow_unit_6: flow_0_6_0_0 + flow_1_6_0_0 + flow_5_6_0_0
   - flow_6_1_0_0 - flow_6_5_0_0 - flow_6_7_0_0 - flow_6_8_0_0
   - flow_6_10_0_0 - flow_6_11_0_0 - flow_6_12_0_0 - flow_6_13_0_0
   - flow_6_14_0_0 - flow_6_15_0_0 - flow_6_16_0_0 - flow_6_17_0_0
   - flow_6_18_0_0 + flow_7_6_0_0 + flow_8_6_0_0 + flow_10_6_0_0
   + flow_11_6_0_0 + flow_12_6_0_0 + flow_13_6_0_0 + flow_14_6_0_0
   + flow_15_6_0_0 + flow_17_6_0_0 = 1
 one_parent_7: edge_1_7_0_0 + edge_5_7_0_0 + edge_6_7_0_0 + edge_8_7_0_0
   + edge_10_7_0_0 + edge_11_7_0_0 + edge_14_7_0_0 + edge_15_7_0_0
   + edge_17_7_0_0 = 1
 consume_one_flow_unit_7: flow_1_7_0_0 + flow_5_7_0_0 + flow_6_7_0_0
   - flow_7_1_0_0 - flow_7_5_0_0 - flow_7_6_0_0 - flow_7_8_0_0
   - flow_7_10_0_0 - flow_7_11_0_0 - flow_7_12_0_0 - flow_7_13_0_0
   - flow_7_14_0_0 - flow_7_15_0_0 - flow_7_16_0_0 - flow_7_17_0_0
   - flow_7_18_0_0 + flow_8_7_0_0 + flow_10_7_0_0 + flow_11_7_0_0
   + flow_14_7_0_0 + flow_15_7_0_0 + flow_17_7_0_0 = 1
 one_parent_8: edge_0_8_0_0 + edge_6_8_0_0 + edge_7_8_0_0 + edge_10_8_0_0
   + edge_11_8_0_0 + edge_12_8_0_0 + edge_14_8_0_0 + edge_15_8_0_0
   + edge_17_8_0_0 = 1
 consume_one_flow_unit_8: flow_0_8_0_0 + flow_6_8_0_0 + flow_7_8_0_0
   - flow_8_1_0_0 - flow_8_5_0_0 - flow_8_6_0_0 - flow_8_7_0_0
   - flow_8_10_0_0 - flow_8_11_0_0 - flow_8_12_0_0 - flow_8_13_0_0
   - flow_8_14_0_0 - flow_8_15_0_0 - flow_8_16_0_0 - flow_8_17_0_0
   - flow_8_18_0_0 + flow_10_8_0_0 + flow_11_8_0_0 + flow_12_8_0_0
   + flow_14_8_0_0 + flow_15_8_0_0 + flow_17_8_0_0 = 1
 one_parent_9: = 1
 consume_one_flow_unit_9: = 1
 one_parent_10: edge_0_10_0_0 + edge_1_10_0_0 + edge_5_10_0_0
   + edge_6_10_0_0 + edge_7_10_0_0 + edge_8_10_0_0 + edge_11_10_0_0
   + edge_12_10_0_0 + edge_13_10_0_0 + edge_14_10_0_0 + edge_15_10_0_0
   + edge_17_10_0_0 = 1
 consume_one_flow_unit_10: flow_0_10_0_0 + flow_1_10_0_0 + flow_5_10_0_0
   + flow_6_10_0_0 + flow_7_10_0_0 + flow_8_10_0_0 - flow_10_1_0_0
   - flow_10_5_0_0 - flow_10_6_0_0 - flow_10_7_0_0 - flow_10_8_0_0
   - flow_10_11_0_0 - flow_10_12_0_0 - flow_10_13_0_0 - flow_10_14_0_0
   - flow_10_15_0_0 - flow_10_16_0_0 - flow_10_17_0_0 - flow_10_18_0_0
   + flow_11_10_0_0 + flow_12_10_0_0 + flow_13_10_0_0 + flow_14_10_0_0
   + flow_15_10_0_0 + flow_17_10_0_0 = 1
 one_parent_11: edge_0_11_0_0 + edge_1_11_0_0 + edge_5_11_0_0
   + edge_6_11_0_0 + edge_7_11_0_0 + edge_8_11_0_0 + edge_10_11_0_0
   + edge_12_11_0_0 + edge_13_11_0_0 + edge_14_11_0_0 + edge_15_11_0_0
   + edge_17_11_0_0 = 1
 consume_one_flow_unit_11: flow_0_11_0_0 + flow_1_11_0_0 + flow_5_11_0_0
   + flow_6_11_0_0 + flow_7_11_0_0 + flow_8_11_0_0 + flow_10_11_0_0
   - flow_11_1_0_0 - flow_11_5_0_0 - flow_11_6_0_0 - flow_11_7_0_0
   - flow_11_8_0_0 - flow_11_10_0_0 - flow_11_12_0_0 - flow_11_13_0_0
   - flow_11_14_0_0 - flow_11_15_0_0 - flow_11_16_0_0 - flow_11_17_0_0
   - flow_11_18_0_0 + flow_12_11_0_0 + flow_13_11_0_0 + flow_14_11_0_0
   + flow_15_11_0_0 + flow_17_11_0_0 = 1
 one_parent_12: edge_0_12_0_0 + edge_1_12_0_0 + edge_5_12_0_0
   + edge_6_12_0_0 + edge_7_12_0_0 + edge_8_12_0_0 + edge_10_12_0_0
   + edge_11_12_0_0 + edge_13_12_0_0 + edge_14_12_0_0 + edge_15_12_0_0
   + edge_16_12_0_0 + edge_17_12_0_0 = 1
 consume_one_flow_unit_12: flow_0_12_0_0 + flow_1_12_0_0 + flow_5_12_0_0
   + flow_6_12_0_0 + flow_7_12_0_0 + flow_8_12_0_0 + flow_10_12_0_0
   + flow_11_12_0_0 - flow_12_1_0_0 - flow_12_5_0_0 - flow_12_6_0_0
   - flow_12_8_0_0 - flow_12_10_0_0 - flow_12_11_0_0 - flow_12_13_0_0
   - flow_12_15_0_0 - flow_12_16_0_0 - flow_12_17_0_0 - flow_12_18_0_0
   + flow_13_12_0_0 + flow_14_12_0_0 + flow_15_12_0_0 + flow_16_12_0_0
   + flow_17_12_0_0 = 1
 one_parent_13: edge_0_13_0_0 + edge_1_13_0_0 + edge_5_13_0_0
   + edge_6_13_0_0 + edge_7_13_0_0 + edge_8_13_0_0 + edge_10_13_0_0
   + edge_11_13_0_0 + edge_12_13_0_0 + edge_14_13_0_0 + edge_15_13_0_0
   + edge_16_13_0_0 + edge_17_13_0_0 = 1
 consume_one_flow_unit_13: flow_0_13_0_0 + flow_1_13_0_0 + flow_5_13_0_0
   + flow_6_13_0_0 + flow_7_13_0_0 + flow_8_13_0_0 + flow_10_13_0_0
   + flow_11_13_0_0 + flow_12_13_0_0 - flow_13_1_0_0 - flow_13_5_0_0
   - flow_13_6_0_0 - flow_13_10_0_0 - flow_13_11_0_0 - flow_13_12_0_0
   - flow_13_14_0_0 - flow_13_15_0_0 - flow_13_16_0_0 - flow_13_17_0_0
   - flow_13_18_0_0 + flow_14_13_0_0 + flow_15_13_0_0 + flow_16_13_0_0
   + flow_17_13_0_0 = 1
 one_parent_14: edge_0_14_0_0 + edge_6_14_0_0 + edge_7_14_0_0
   + edge_8_14_0_0 + edge_10_14_0_0 + edge_11_14_0_0 + edge_13_14_0_0
   + edge_15_14_0_0 + edge_17_14_0_0 = 1
 consume_one_flow_unit_14: flow_0_14_0_0 + flow_6_14_0_0 + flow_7_14_0_0
   + flow_8_14_0_0 + flow_10_14_0_0 + flow_11_14_0_0 + flow_13_14_0_0
   - flow_14_1_0_0 - flow_14_5_0_0 - flow_14_6_0_0 - flow_14_7_0_0
   - flow_14_8_0_0 - flow_14_10_0_0 - flow_14_11_0_0 - flow_14_12_0_0
   - flow_14_13_0_0 - flow_14_15_0_0 - flow_14_16_0_0 - flow_14_17_0_0
   - flow_14_18_0_0 + flow_15_14_0_0 + flow_17_14_0_0 = 1
 one_parent_15: edge_0_15_0_0 + edge_1_15_0_0 + edge_5_15_0_0
   + edge_6_15_0_0 + edge_7_15_0_0 + edge_8_15_0_0 + edge_10_15_0_0
   + edge_11_15_0_0 + edge_12_15_0_0 + edge_13_15_0_0 + edge_14_15_0_0
   + edge_16_15_0_0 + edge_17_15_0_0 = 1
 consume_one_flow_unit_15: flow_0_15_0_0 + flow_1_15_0_0 + flow_5_15_0_0
   + flow_6_15_0_0 + flow_7_15_0_0 + flow_8_15_0_0 + flow_10_15_0_0
   + flow_11_15_0_0 + flow_12_15_0_0 + flow_13_15_0_0 + flow_14_15_0_0
   - flow_15_1_0_0 - flow_15_5_0_0 - flow_15_6_0_0 - flow_15_7_0_0
   - flow_15_8_0_0 - flow_15_10_0_0 - flow_15_11_0_0 - flow_15_12_0_0
   - flow_15_13_0_0 - flow_15_14_0_0 - flow_15_16_0_0 - flow_15_17_0_0
   - flow_15_18_0_0 + flow_16_15_0_0 + flow_17_15_0_0 = 1
 one_parent_16: edge_6_16_0_0 + edge_7_16_0_0 + edge_8_16_0_0
   + edge_10_16_0_0 + edge_11_16_0_0 + edge_12_16_0_0 + edge_13_16_0_0
   + edge_14_16_0_0 + edge_15_16_0_0 + edge_17_16_0_0 + edge_18_16_0_0 = 1
 consume_one_flow_unit_16: flow_6_16_0_0 + flow_7_16_0_0 + flow_8_16_0_0
   + flow_10_16_0_0 + flow_11_16_0_0 + flow_12_16_0_0 + flow_13_16_0_0
   + flow_14_16_0_0 + flow_15_16_0_0 - flow_16_1_0_0 - flow_16_5_0_0
   - flow_16_12_0_0 - flow_16_13_0_0 - flow_16_15_0_0 - flow_16_17_0_0
   - flow_16_18_0_0 + flow_17_16_0_0 + flow_18_16_0_0 = 1
 one_parent_17: edge_0_17_0_0 + edge_5_17_0_0 + edge_6_17_0_0
   + edge_7_17_0_0 + edge_8_17_0_0 + edge_10_17_0_0 + edge_11_17_0_0
   + edge_12_17_0_0 + edge_13_17_0_0 + edge_14_17_0_0 + edge_15_17_0_0
   + edge_16_17_0_0 + edge_18_17_0_0 = 1
 consume_one_flow_unit_17: flow_0_17_0_0 + flow_5_17_0_0 + flow_6_17_0_0
   + flow_7_17_0_0 + flow_8_17_0_0 + flow_10_17_0_0 + flow_11_17_0_0
   + flow_12_17_0_0 + flow_13_17_0_0 + flow_14_17_0_0 + flow_15_17_0_0
   + flow_16_17_0_0 - flow_17_1_0_0 - flow_17_5_0_0 - flow_17_6_0_0
   - flow_17_7_0_0 - flow_17_8_0_0 - flow_17_10_0_0 - flow_17_11_0_0
   - flow_17_12_0_0 - flow_17_13_0_0 - flow_17_14_0_0 - flow_17_15_0_0
   - flow_17_16_0_0 - flow_17_18_0_0 + flow_18_17_0_0 = 1
 one_parent_18: edge_1_18_0_0 + edge_5_18_0_0 + edge_6_18_0_0
   + edge_7_18_0_0 + edge_8_18_0_0 + edge_10_18_0_0 + edge_11_18_0_0
   + edge_12_18_0_0 + edge_13_18_0_0 + edge_14_18_0_0 + edge_15_18_0_0
   + edge_16_18_0_0 + edge_17_18_0_0 = 1
 consume_one_flow_unit_18: flow_1_18_0_0 + flow_5_18_0_0 + flow_6_18_0_0
   + flow_7_18_0_0 + flow_8_18_0_0 + flow_10_18_0_0 + flow_11_18_0_0
   + flow_12_18_0_0 + flow_13_18_0_0 + flow_14_18_0_0 + flow_15_18_0_0
   + flow_16_18_0_0 + flow_17_18_0_0 - flow_18_16_0_0 - flow_18_17_0_0 = 1
 root_flow: flow_0_1_0_0 + flow_0_5_0_0 + flow_0_6_0_0 + flow_0_8_0_0
   + flow_0_10_0_0 + flow_0_11_0_0 + flow_0_12_0_0 + flow_0_13_0_0
   + flow_0_14_0_0 + flow_0_15_0_0 + flow_0_17_0_0 = 18
 inactive_no_flow_0_1_0_0: flow_0_1_0_0 - 1000 edge_0_1_0_0 <= 0
 inactive_no_flow_0_5_0_0: flow_0_5_0_0 - 1000 edge_0_5_0_0 <= 0
 inactive_no_flow_0_6_0_0: flow_0_6_0_0 - 1000 edge_0_6_0_0 <= 0
 inactive_no_flow_0_8_0_0: flow_0_8_0_0 - 1000 edge_0_8_0_0 <= 0
 inactive_no_flow_0_10_0_0: flow_0_10_0_0 - 1000 edge_0_10_0_0 <= 0
 inactive_no_flow_0_11_0_0: flow_0_11_0_0 - 1000 edge_0_11_0_0 <= 0
 inactive_no_flow_0_12_0_0: flow_0_12_0_0 - 1000 edge_0_12_0_0 <= 0
 inactive_no_flow_0_13_0_0: flow_0_13_0_0 - 1000 edge_0_13_0_0 <= 0
 inactive_no_flow_0_14_0_0: flow_0_14_0_0 - 1000 edge_0_14_0_0 <= 0
 inactive_no_flow_0_15_0_0: flow_0_15_0_0 - 1000 edge_0_15_0_0 <= 0
 inactive_no_flow_0_17_0_0: flow_0_17_0_0 - 1000 edge_0_17_0_0 <= 0
 inactive_no_flow_1_5_0_0: flow_1_5_0_0 - 1000 edge_1_5_0_0 <= 0
 inactive_no_flow_1_6_0_0: flow_1_6_0_0 - 1000 edge_1_6_0_0 <= 0
 inactive_no_flow_1_7_0_0: flow_1_7_0_0 - 1000 edge_1_7_0_0 <= 0
 inactive_no_flow_1_10_0_0: flow_1_10_0_0 - 1000 edge_1_10_0_0 <= 0
 inactive_no_flow_1_11_0_0: flow_1_11_0_0 - 1000 edge_1_11_0_0 <= 0
 inactive_no_flow_1_12_0_0: flow_1_12_0_0 - 1000 edge_1_12_0_0 <= 0
 inactive_no_flow_1_13_0_0: flow_1_13_0_0 - 1000 edge_1_13_0_0 <= 0
 inactive_no_flow_1_15_0_0: flow_1_15_0_0 - 1000 edge_1_15_0_0 <= 0
 inactive_no_flow_1_18_0_0: flow_1_18_0_0 - 1000 edge_1_18_0_0 <= 0
 inactive_no_flow_5_1_0_0: flow_5_1_0_0 - 1000 edge_5_1_0_0 <= 0
 inactive_no_flow_5_6_0_0: flow_5_6_0_0 - 1000 edge_5_6_0_0 <= 0
 inactive_no_flow_5_7_0_0: flow_5_7_0_0 - 1000 edge_5_7_0_0 <= 0
 inactive_no_flow_5_10_0_0: flow_5_10_0_0 - 1000 edge_5_10_0_0 <= 0
 inactive_no_flow_5_11_0_0: flow_5_11_0_0 - 1000 edge_5_11_0_0 <= 0
 inactive_no_flow_5_12_0_0: flow_5_12_0_0 - 1000 edge_5_12_0_0 <= 0
 inactive_no_flow_5_13_0_0: flow_5_13_0_0 - 1000 edge_5_13_0_0 <= 0
 inactive_no_flow_5_15_0_0: flow_5_15_0_0 - 1000 edge_5_15_0_0 <= 0
 inactive_no_flow_5_17_0_0: flow_5_17_0_0 - 1000 edge_5_17_0_0 <= 0
 inactive_no_flow_5_18_0_0: flow_5_18_0_0 - 1000 edge_5_18_0_0 <= 0
 inactive_no_flow_6_1_0_0: flow_6_1_0_0 - 1000 edge_6_1_0_0 <= 0
 inactive_no_flow_6_5_0_0: flow_6_5_0_0 - 1000 edge_6_5_0_0 <= 0
 inactive_no_flow_6_6_0_0: flow_6_6_0_0 - 1000 edge_6_6_0_0 <= 0
 inactive_no_flow_6_7_0_0: flow_6_7_0_0 - 1000 edge_6_7_0_0 <= 0
 inactive_no_flow_6_8_0_0: flow_6_8_0_0 - 1000 edge_6_8_0_0 <= 0
 inactive_no_flow_6_10_0_0: flow_6_10_0_0 - 1000 edge_6_10_0_0 <= 0
 inactive_no_flow_6_11_0_0: flow_6_11_0_0 - 1000 edge_6_11_0_0 <= 0
 inactive_no_flow_6_12_0_0: flow_6_12_0_0 - 1000 edge_6_12_0_0 <= 0
 inactive_no_flow_6_13_0_0: flow_6_13_0_0 - 1000 edge_6_13_0_0 <= 0
 inactive_no_flow_6_14_0_0: flow_6_14_0_0 - 1000 edge_6_14_0_0 <= 0
 inactive_no_flow_6_15_0_0: flow_6_15_0_0 - 1000 edge_6_15_0_0 <= 0
 inactive_no_flow_6_16_0_0: flow_6_16_0_0 - 1000 edge_6_16_0_0 <= 0
 inactive_no_flow_6_17_0_0: flow_6_17_0_0 - 1000 edge_6_17_0_0 <= 0
 inactive_no_flow_6_18_0_0: flow_6_18_0_0 - 1000 edge_6_18_0_0 <= 0
 inactive_no_flow_7_1_0_0: flow_7_1_0_0 - 1000 edge_7_1_0_0 <= 0
 inactive_no_flow_7_5_0_0: flow_7_5_0_0 - 1000 edge_7_5_0_0 <= 0
 inactive_no_flow_7_6_0_0: flow_7_6_0_0 - 1000 edge_7_6_0_0 <= 0
 inactive_no_flow_7_8_0_0: flow_7_8_0_0 - 1000 edge_7_8_0_0 <= 0
 inactive_no_flow_7_10_0_0: flow_7_10_0_0 - 1000 edge_7_10_0_0 <= 0
 inactive_no_flow_7_11_0_0: flow_7_11_0_0 - 1000 edge_7_11_0_0 <= 0
 inactive_no_flow_7_12_0_0: flow_7_12_0_0 - 1000 edge_7_12_0_0 <= 0
 inactive_no_flow_7_13_0_0: flow_7_13_0_0 - 1000 edge_7_13_0_0 <= 0
 inactive_no_flow_7_14_0_0: flow_7_14_0_0 - 1000 edge_7_14_0_0 <= 0
 inactive_no_flow_7_15_0_0: flow_7_15_0_0 - 1000 edge_7_15_0_0 <= 0
 inactive_no_flow_7_16_0_0: flow_7_16_0_0 - 1000 edge_7_16_0_0 <= 0
 inactive_no_flow_7_17_0_0: flow_7_17_0_0 - 1000 edge_7_17_0_0 <= 0
 inactive_no_flow_7_18_0_0: flow_7_18_0_0 - 1000 edge_7_18_0_0 <= 0
 inactive_no_flow_8_1_0_0: flow_8_1_0_0 - 1000 edge_8_1_0_0 <= 0
 inactive_no_flow_8_5_0_0: flow_8_5_0_0 - 1000 edge_8_5_0_0 <= 0
 inactive_no_flow_8_6_0_0: flow_8_6_0_0 - 1000 edge_8_6_0_0 <= 0
 inactive_no_flow_8_7_0_0: flow_8_7_0_0 - 1000 edge_8_7_0_0 <= 0
 inactive_no_flow_8_10_0_0: flow_8_10_0_0 - 1000 edge_8_10_0_0 <= 0
 inactive_no_flow_8_11_0_0: flow_8_11_0_0 - 1000 edge_8_11_0_0 <= 0
 inactive_no_flow_8_12_0_0: flow_8_12_0_0 - 1000 edge_8_12_0_0 <= 0
 inactive_no_flow_8_13_0_0: flow_8_13_0_0 - 1000 edge_8_13_0_0 <= 0
 inactive_no_flow_8_14_0_0: flow_8_14_0_0 - 1000 edge_8_14_0_0 <= 0
 inactive_no_flow_8_15_0_0: flow_8_15_0_0 - 1000 edge_8_15_0_0 <= 0
 inactive_no_flow_8_16_0_0: flow_8_16_0_0 - 1000 edge_8_16_0_0 <= 0
 inactive_no_flow_8_17_0_0: flow_8_17_0_0 - 1000 edge_8_17_0_0 <= 0
 inactive_no_flow_8_18_0_0: flow_8_18_0_0 - 1000 edge_8_18_0_0 <= 0
 inactive_no_flow_10_1_0_0: flow_10_1_0_0 - 1000 edge_10_1_0_0 <= 0
 inactive_no_flow_10_5_0_0: flow_10_5_0_0 - 1000 edge_10_5_0_0 <= 0
 inactive_no_flow_10_6_0_0: flow_10_6_0_0 - 1000 edge_10_6_0_0 <= 0
 inactive_no_flow_10_7_0_0: flow_10_7_0_0 - 1000 edge_10_7_0_0 <= 0
 inactive_no_flow_10_8_0_0: flow_10_8_0_0 - 1000 edge_10_8_0_0 <= 0
 inactive_no_flow_10_11_0_0: flow_10_11_0_0 - 1000 edge_10_11_0_0 <= 0
 inactive_no_flow_10_12_0_0: flow_10_12_0_0 - 1000 edge_10_12_0_0 <= 0
 inactive_no_flow_10_13_0_0: flow_10_13_0_0 - 1000 edge_10_13_0_0 <= 0
 inactive_no_flow_10_14_0_0: flow_10_14_0_0 - 1000 edge_10_14_0_0 <= 0
 inactive_no_flow_10_15_0_0: flow_10_15_0_0 - 1000 edge_10_15_0_0 <= 0
 inactive_no_flow_10_16_0_0: flow_10_16_0_0 - 1000 edge_10_16_0_0 <= 0
 inactive_no_flow_10_17_0_0: flow_10_17_0_0 - 1000 edge_10_17_0_0 <= 0
 inactive_no_flow_10_18_0_0: flow_10_18_0_0 - 1000 edge_10_18_0_0 <= 0
 inactive_no_flow_11_1_0_0: flow_11_1_0_0 - 1000 edge_11_1_0_0 <= 0
 inactive_no_flow_11_5_0_0: flow_11_5_0_0 - 1000 edge_11_5_0_0 <= 0
 inactive_no_flow_11_6_0_0: flow_11_6_0_0 - 1000 edge_11_6_0_0 <= 0
 inactive_no_flow_11_7_0_0: flow_11_7_0_0 - 1000 edge_11_7_0_0 <= 0
 inactive_no_flow_11_8_0_0: flow_11_8_0_0 - 1000 edge_11_8_0_0 <= 0
 inactive_no_flow_11_10_0_0: flow_11_10_0_0 - 1000 edge_11_10_0_0 <= 0
 inactive_no_flow_11_12_0_0: flow_11_12_0_0 - 1000 edge_11_12_0_0 <= 0
 inactive_no_flow_11_13_0_0: flow_11_13_0_0 - 1000 edge_11_13_0_0 <= 0
 inactive_no_flow_11_14_0_0: flow_11_14_0_0 - 1000 edge_11_14_0_0 <= 0
 inactive_no_flow_11_15_0_0: flow_11_15_0_0 - 1000 edge_11_15_0_0 <= 0
 inactive_no_flow_11_16_0_0: flow_11_16_0_0 - 1000 edge_11_16_0_0 <= 0
 inactive_no_flow_11_17_0_0: flow_11_17_0_0 - 1000 edge_11_17_0_0 <= 0
 inactive_no_flow_11_18_0_0: flow_11_18_0_0 - 1000 edge_11_18_0_0 <= 0
 inactive_no_flow_12_1_0_0: flow_12_1_0_0 - 1000 edge_12_1_0_0 <= 0
 inactive_no_flow_12_5_0_0: flow_12_5_0_0 - 1000 edge_12_5_0_0 <= 0
 inactive_no_flow_12_6_0_0: flow_12_6_0_0 - 1000 edge_12_6_0_0 <= 0
 inactive_no_flow_12_8_0_0: flow_12_8_0_0 - 1000 edge_12_8_0_0 <= 0
 inactive_no_flow_12_10_0_0: flow_12_10_0_0 - 1000 edge_12_10_0_0 <= 0
 inactive_no_flow_12_11_0_0: flow_12_11_0_0 - 1000 edge_12_11_0_0 <= 0
 inactive_no_flow_12_13_0_0: flow_12_13_0_0 - 1000 edge_12_13_0_0 <= 0
 inactive_no_flow_12_15_0_0: flow_12_15_0_0 - 1000 edge_12_15_0_0 <= 0
 inactive_no_flow_12_16_0_0: flow_12_16_0_0 - 1000 edge_12_16_0_0 <= 0
 inactive_no_flow_12_17_0_0: flow_12_17_0_0 - 1000 edge_12_17_0_0 <= 0
 inactive_no_flow_12_18_0_0: flow_12_18_0_0 - 1000 edge_12_18_0_0 <= 0
 inactive_no_flow_13_1_0_0: flow_13_1_0_0 - 1000 edge_13_1_0_0 <= 0
 inactive_no_flow_13_5_0_0: flow_13_5_0_0 - 1000 edge_13_5_0_0 <= 0
 inactive_no_flow_13_6_0_0: flow_13_6_0_0 - 1000 edge_13_6_0_0 <= 0
 inactive_no_flow_13_10_0_0: flow_13_10_0_0 - 1000 edge_13_10_0_0 <= 0
 inactive_no_flow_13_11_0_0: flow_13_11_0_0 - 1000 edge_13_11_0_0 <= 0
 inactive_no_flow_13_12_0_0: flow_13_12_0_0 - 1000 edge_13_12_0_0 <= 0
 inactive_no_flow_13_14_0_0: flow_13_14_0_0 - 1000 edge_13_14_0_0 <= 0
 inactive_no_flow_13_15_0_0: flow_13_15_0_0 - 1000 edge_13_15_0_0 <= 0
 inactive_no_flow_13_16_0_0: flow_13_16_0_0 - 1000 edge_13_16_0_0 <= 0
 inactive_no_flow_13_17_0_0: flow_13_17_0_0 - 1000 edge_13_17_0_0 <= 0
 inactive_no_flow_13_18_0_0: flow_13_18_0_0 - 1000 edge_13_18_0_0 <= 0
 inactive_no_flow_14_1_0_0: flow_14_1_0_0 - 1000 edge_14_1_0_0 <= 0
 inactive_no_flow_14_5_0_0: flow_14_5_0_0 - 1000 edge_14_5_0_0 <= 0
 inactive_no_flow_14_6_0_0: flow_14_6_0_0 - 1000 edge_14_6_0_0 <= 0
 inactive_no_flow_14_7_0_0: flow_14_7_0_0 - 1000 edge_14_7_0_0 <= 0
 inactive_no_flow_14_8_0_0: flow_14_8_0_0 - 1000 edge_14_8_0_0 <= 0
 inactive_no_flow_14_10_0_0: flow_14_10_0_0 - 1000 edge_14_10_0_0 <= 0
 inactive_no_flow_14_11_0_0: flow_14_11_0_0 - 1000 edge_14_11_0_0 <= 0
 inactive_no_flow_14_12_0_0: flow_14_12_0_0 - 1000 edge_14_12_0_0 <= 0
 inactive_no_flow_14_13_0_0: flow_14_13_0_0 - 1000 edge_14_13_0_0 <= 0
 inactive_no_flow_14_15_0_0: flow_14_15_0_0 - 1000 edge_14_15_0_0 <= 0
 inactive_no_flow_14_16_0_0: flow_14_16_0_0 - 1000 edge_14_16_0_0 <= 0
 inactive_no_flow_14_17_0_0: flow_14_17_0_0 - 1000 edge_14_17_0_0 <= 0
 inactive_no_flow_14_18_0_0: flow_14_18_0_0 - 1000 edge_14_18_0_0 <= 0
 inactive_no_flow_15_1_0_0: flow_15_1_0_0 - 1000 edge_15_1_0_0 <= 0
 inactive_no_flow_15_5_0_0: flow_15_5_0_0 - 1000 edge_15_5_0_0 <= 0
 inactive_no_flow_15_6_0_0: flow_15_6_0_0 - 1000 edge_15_6_0_0 <= 0
 inactive_no_flow_15_7_0_0: flow_15_7_0_0 - 1000 edge_15_7_0_0 <= 0
 inactive_no_flow_15_8_0_0: flow_15_8_0_0 - 1000 edge_15_8_0_0 <= 0
 inactive_no_flow_15_10_0_0: flow_15_10_0_0 - 1000 edge_15_10_0_0 <= 0
 inactive_no_flow_15_11_0_0: flow_15_11_0_0 - 1000 edge_15_11_0_0 <= 0
 inactive_no_flow_15_12_0_0: flow_15_12_0_0 - 1000 edge_15_12_0_0 <= 0
 inactive_no_flow_15_13_0_0: flow_15_13_0_0 - 1000 edge_15_13_0_0 <= 0
 inactive_no_flow_15_14_0_0: flow_15_14_0_0 - 1000 edge_15_14_0_0 <= 0
 inactive_no_flow_15_16_0_0: flow_15_16_0_0 - 1000 edge_15_16_0_0 <= 0
 inactive_no_flow_15_17_0_0: flow_15_17_0_0 - 1000 edge_15_17_0_0 <= 0
 inactive_no_flow_15_18_0_0: flow_15_18_0_0 - 1000 edge_15_18_0_0 <= 0
 inactive_no_flow_16_1_0_0: flow_16_1_0_0 - 1000 edge_16_1_0_0 <= 0
 inactive_no_flow_16_5_0_0: flow_16_5_0_0 - 1000 edge_16_5_0_0 <= 0
 inactive_no_flow_16_12_0_0: flow_16_12_0_0 - 1000 edge_16_12_0_0 <= 0
 inactive_no_flow_16_13_0_0: flow_16_13_0_0 - 1000 edge_16_13_0_0 <= 0
 inactive_no_flow_16_15_0_0: flow_16_15_0_0 - 1000 edge_16_15_0_0 <= 0
 inactive_no_flow_16_17_0_0: flow_16_17_0_0 - 1000 edge_16_17_0_0 <= 0
 inactive_no_flow_16_18_0_0: flow_16_18_0_0 - 1000 edge_16_18_0_0 <= 0
 inactive_no_flow_17_1_0_0: flow_17_1_0_0 - 1000 edge_17_1_0_0 <= 0
 inactive_no_flow_17_5_0_0: flow_17_5_0_0 - 1000 edge_17_5_0_0 <= 0
 inactive_no_flow_17_6_0_0: flow_17_6_0_0 - 1000 edge_17_6_0_0 <= 0
 inactive_no_flow_17_7_0_0: flow_17_7_0_0 - 1000 edge_17_7_0_0 <= 0
 inactive_no_flow_17_8_0_0: flow_17_8_0_0 - 1000 edge_17_8_0_0 <= 0
 inactive_no_flow_17_10_0_0: flow_17_10_0_0 - 1000 edge_17_10_0_0 <= 0
 inactive_no_flow_17_11_0_0: flow_17_11_0_0 - 1000 edge_17_11_0_0 <= 0
 inactive_no_flow_17_12_0_0: flow_17_12_0_0 - 1000 edge_17_12_0_0 <= 0
 inactive_no_flow_17_13_0_0: flow_17_13_0_0 - 1000 edge_17_13_0_0 <= 0
 inactive_no_flow_17_14_0_0: flow_17_14_0_0 - 1000 edge_17_14_0_0 <= 0
 inactive_no_flow_17_15_0_0: flow_17_15_0_0 - 1000 edge_17_15_0_0 <= 0
 inactive_no_flow_17_16_0_0: flow_17_16_0_0 - 1000 edge_17_16_0_0 <= 0
 inactive_no_flow_17_18_0_0: flow_17_18_0_0 - 1000 edge_17_18_0_0 <= 0
 inactive_no_flow_18_16_0_0: flow_18_16_0_0 - 1000 edge_18_16_0_0 <= 0
 inactive_no_flow_18_17_0_0: flow_18_17_0_0 - 1000 edge_18_17_0_0 <= 0
Bounds
Binaries
 edge_0_1_0_0 edge_0_5_0_0 edge_0_6_0_0 edge_0_8_0_0 edge_0_10_0_0
 edge_0_11_0_0 edge_0_12_0_0 edge_0_13_0_0 edge_0_14_0_0 edge_0_15_0_0
 edge_0_17_0_0 edge_1_5_0_0 edge_1_6_0_0 edge_1_7_0_0 edge_1_10_0_0
 edge_1_11_0_0 edge_1_12_0_0 edge_1_13_0_0 edge_1_15_0_0 edge_1_18_0_0
 edge_5_1_0_0 edge_5_6_0_0 edge_5_7_0_0 edge_5_10_0_0 edge_5_11_0_0
 edge_5_12_0_0 edge_5_13_0_0 edge_5_15_0_0 edge_5_17_0_0 edge_5_18_0_0
 edge_6_1_0_0 edge_6_5_0_0 edge_6_6_0_0 edge_6_7_0_0 edge_6_8_0_0
 edge_6_10_0_0 edge_6_11_0_0 edge_6_12_0_0 edge_6_13_0_0 edge_6_14_0_0
 edge_6_15_0_0 edge_6_16_0_0 edge_6_17_0_0 edge_6_18_0_0 edge_7_1_0_0
 edge_7_5_0_0 edge_7_6_0_0 edge_7_8_0_0 edge_7_10_0_0 edge_7_11_0_0
 edge_7_12_0_0 edge_7_13_0_0 edge_7_14_0_0 edge_7_15_0_0 edge_7_16_0_0
 edge_7_17_0_0 edge_7_18_0_0 edge_8_1_0_0 edge_8_5_0_0 edge_8_6_0_0
 edge_8_7_0_0 edge_8_10_0_0 edge_8_11_0_0 edge_8_12_0_0 edge_8_13_0_0
 edge_8_14_0_0 edge_8_15_0_0 edge_8_16_0_0 edge_8_17_0_0 edge_8_18_0_0
 edge_10_1_0_0 edge_10_5_0_0 edge_10_6_0_0 edge_10_7_0_0 edge_10_8_0_0
 edge_10_11_0_0 edge_10_12_0_0 edge_10_13_0_0 edge_10_14_0_0 edge_10_15_0_0
 edge_10_16_0_0 edge_10_17_0_0 edge_10_18_0_0 edge_11_1_0_0 edge_11_5_0_0
 edge_11_6_0_0 edge_11_7_0_0 edge_11_8_0_0 edge_11_10_0_0 edge_11_12_0_0
 edge_11_13_0_0 edge_11_14_0_0 edge_11_15_0_0 edge_11_16_0_0 edge_11_17_0_0
 edge_11_18_0_0 edge_12_1_0_0 edge_12_5_0_0 edge_12_6_0_0 edge_12_8_0_0
 edge_12_10_0_0 edge_12_11_0_0 edge_12_13_0_0 edge_12_15_0_0 edge_12_16_0_0
 edge_12_17_0_0 edge_12_18_0_0 edge_13_1_0_0 edge_13_5_0_0 edge_13_6_0_0
 edge_13_10_0_0 edge_13_11_0_0 edge_13_12_0_0 edge_13_14_0_0 edge_13_15_0_0
 edge_13_16_0_0 edge_13_17_0_0 edge_13_18_0_0 edge_14_1_0_0 edge_14_5_0_0
 edge_14_6_0_0 edge_14_7_0_0 edge_14_8_0_0 edge_14_10_0_0 edge_14_11_0_0
 edge_14_12_0_0 edge_14_13_0_0 edge_14_15_0_0 edge_14_16_0_0 edge_14_17_0_0
 edge_14_18_0_0 edge_15_1_0_0 edge_15_5_0_0 edge_15_6_0_0 edge_15_7_0_0
 edge_15_8_0_0 edge_15_10_0_0 edge_15_11_0_0 edge_15_12_0_0 edge_15_13_0_0
 edge_15_14_0_0 edge_15_16_0_0 edge_15_17_0_0 edge_15_18_0_0 edge_16_1_0_0
 edge_16_5_0_0 edge_16_12_0_0 edge_16_13_0_0 edge_16_15_0_0 edge_16_17_0_0
 edge_16_18_0_0 edge_17_1_0_0 edge_17_5_0_0 edge_17_6_0_0 edge_17_7_0_0
 edge_17_8_0_0 edge_17_10_0_0 edge_17_11_0_0 edge_17_12_0_0 edge_17_13_0_0
 edge_17_14_0_0 edge_17_15_0_0 edge_17_16_0_0 edge_17_18_0_0 edge_18_16_0_0
 edge_18_17_0_0
End
